4 0 1 2 3 5 1 2 3 4 7 8 3 4 0 1 2 6 7 1 2 3 4 0 6 3 4 0 5 2 0 7 5 8 6 1
6 0 4 5 1 3 5 1 3 2 4 6 3 4 0 1 5 2 1 5 2 3 6 0 4 6 1 0 2 5 0 2 5 6 3 4
6 0 4 5 1 3 5 1 3 2 4 6 3 4 0 1 5 2 1 5 2 3 6 0 4 6 1 0 2 5 0 2 5 6 3 4
